Ordonnancement/plne/source/petit_instance/2job/2job_18.dat
data;
param nombreJob := 2;
param nombreRessource := 3;
param duree := 1 4 2 7;
param capaciteRessource := 1 7 2 13 3 18;
param besoinRessource : 1 2 3 :=
                    1   3 8 8
                    2   4 2 2;
end;

